db/data/28464274185745276483091610208295372680.z3.out
sat
-------------------
76.492667276
